%
% Problem from 
% Andreas Schutt, Thibaut Feydy, Peter J. Stuckey, Mark G. Wallace:
% "Explaining the cumulative propagator", page 2 (figure 1)
%
%            ------f(6)  ---------
%           /                      \
%   source-> -- d(4) ---> e(5) -----> sink
%          \                        /
%            - a(1) -> b(2) -> c(3)
%
%
num_jobs = 6;
num_workers = 5;
%           1 2 3 4 5 6
duration = [2,6,2,2,5,6];
resource = [1,2,4,2,2,2];
max_time = 20; % optimal: 13
allow_idle = true;
collect_workers = false;
do_precendences = true;
num_precedences = 3;
precedences = array2d(1..num_precedences, 1..2, 
[ 
  1,2,  % a,b
  2,3,  % b,c
  4,5,  % d,e,
]);

